SDVRP instances/p02/p02_1050_tsplib0_splitx10_0.vrp
NAME:.\SDVRP_splitx10_
BEST_KNOWN: 0
COMMENT: 0
DIMENSION: 363
CAPACITY: 1400
EDGE_WEIGHT_FORMAT: FUNCTION
EDGE_WEIGHT_TYPE: EXACT_2D
NODE_COORD_SECTION
1 0.00000 0.00000
2 -18 -18
3 -18 -18
4 -18 -18
5 -18 -18
6 -18 -18
7 -18 -18
8 -4 -14
9 -4 -14
10 -4 -14
11 -19 5
12 -19 5
13 -19 5
14 -19 5
15 -19 5
16 -19 5
17 5 -5
18 5 -5
19 5 -5
20 5 -5
21 5 -5
22 15 -20
23 15 -20
24 15 -20
25 15 -20
26 -7 -6
27 -7 -6
28 -7 -6
29 -7 -6
30 -7 -6
31 -7 -6
32 -7 -6
33 10 10
34 10 10
35 10 10
36 10 10
37 10 10
38 10 10
39 10 10
40 15 5
41 15 5
42 15 5
43 15 5
44 15 5
45 15 5
46 -14 19
47 -14 19
48 -14 19
49 -14 19
50 -14 19
51 0 26
52 0 26
53 15 25
54 15 25
55 15 25
56 15 25
57 15 25
58 -5 11
59 -5 11
60 -5 11
61 22 -5
62 22 -5
63 22 -5
64 22 -5
65 22 -5
66 22 -5
67 22 17
68 22 17
69 22 17
70 22 -16
71 22 -16
72 22 -16
73 22 -16
74 22 -16
75 22 -16
76 -19 -4
77 -19 -4
78 -19 -4
79 -7 4
80 -7 4
81 -7 4
82 -7 4
83 -31 16
84 -31 16
85 22 8
86 22 8
87 22 8
88 22 8
89 22 8
90 22 8
91 26 -26
92 26 -26
93 26 -26
94 26 -26
95 4 -27
96 4 -27
97 4 -27
98 4 -27
99 4 -27
100 -14 -27
101 -14 -27
102 -14 -27
103 -29 -12
104 -29 -12
105 -29 -12
106 -29 -12
107 -33 3
108 -33 3
109 -33 3
110 -33 3
111 -33 3
112 -23 24
113 -23 24
114 -23 24
115 -23 24
116 1 6
117 1 6
118 1 6
119 1 6
120 1 6
121 1 6
122 1 6
123 1 6
124 15 -6
125 15 -6
126 -5 -24
127 -5 -24
128 -5 -24
129 12 -14
130 12 -14
131 12 -14
132 3 -14
133 3 -14
134 3 -14
135 3 -14
136 3 -14
137 -9 36
138 -9 36
139 -9 36
140 -9 36
141 -9 36
142 -9 36
143 -18 13
144 -18 13
145 -18 13
146 -18 13
147 -14 -11
148 -14 -11
149 -14 -11
150 -14 -11
151 -14 -11
152 10 0
153 10 0
154 10 0
155 10 0
156 10 0
157 10 0
158 15 10
159 15 10
160 15 10
161 15 10
162 15 10
163 15 10
164 14 -30
165 14 -30
166 14 -30
167 14 -30
168 14 -30
169 14 -30
170 20 -25
171 20 -25
172 20 -25
173 7 26
174 7 26
175 7 26
176 7 26
177 7 26
178 7 26
179 7 26
180 -10 20
181 -10 20
182 -10 20
183 -10 20
184 -10 20
185 -10 20
186 -10 20
187 -10 10
188 -10 10
189 -10 10
190 -10 10
191 -10 10
192 -28 -23
193 -28 -23
194 -28 -23
195 -28 -23
196 -28 -23
197 -25 -26
198 -25 -26
199 -25 -26
200 -25 -26
201 -24 -21
202 -24 -21
203 -24 -21
204 -19 8
205 -19 8
206 -19 8
207 -19 8
208 -19 8
209 10 -10
210 10 -10
211 10 -10
212 11 2
213 11 2
214 10 -25
215 10 -25
216 10 -25
217 10 -25
218 10 -25
219 10 -25
220 10 -25
221 8 -19
222 8 -19
223 8 -19
224 8 -19
225 8 -19
226 -28 -2
227 -28 -2
228 -28 -2
229 -28 -2
230 -28 -2
231 -28 -2
232 -25 16
233 -25 16
234 -25 16
235 -25 16
236 -25 16
237 -25 16
238 -25 16
239 -11 -1
240 -11 -1
241 -11 -1
242 -11 -1
243 -11 -1
244 14 -2
245 14 -2
246 14 -2
247 14 -2
248 15 17
249 15 17
250 15 17
251 15 17
252 27 1
253 27 1
254 27 1
255 27 1
256 27 1
257 -30 30
258 -30 30
259 -30 30
260 -30 30
261 -30 30
262 -30 30
263 -30 30
264 -30 30
265 -34 -15
266 -34 -15
267 -34 -15
268 -34 -15
269 -34 -15
270 -34 -15
271 -34 -15
272 25 -13
273 25 -13
274 25 -13
275 25 -13
276 0 20
277 0 20
278 0 20
279 0 20
280 0 20
281 0 20
282 30 24
283 30 24
284 30 24
285 24 -36
286 24 -36
287 24 -36
288 24 -36
289 -4 -34
290 -4 -34
291 -4 -34
292 -10 -20
293 -20 -10
294 -20 -10
295 -20 -10
296 -20 -10
297 -25 -35
298 -25 -35
299 -25 -35
300 10 30
301 10 30
302 10 30
303 10 30
304 10 30
305 17 32
306 17 32
307 17 32
308 17 32
309 17 32
310 17 32
311 5 2
312 5 2
313 5 2
314 5 2
315 5 2
316 5 2
317 -2 -7
318 -2 -7
319 -2 -7
320 -2 -7
321 -2 -7
322 10 -36
323 10 -36
324 10 -36
325 10 -36
326 10 -36
327 10 -36
328 10 -36
329 10 -36
330 26 -32
331 26 -32
332 26 -32
333 26 -32
334 26 -32
335 26 -32
336 26 -32
337 19 -35
338 19 -35
339 19 -35
340 19 -35
341 19 -35
342 19 -35
343 -5 20
344 -5 20
345 -5 20
346 -5 20
347 -13 -16
348 -13 -16
349 -13 -16
350 -13 -16
351 -13 -16
352 -13 -16
353 0 -20
354 0 -20
355 0 -20
356 0 -20
357 0 -20
358 0 -20
359 0 -20
360 0 -20
361 0 -3
362 0 -3
363 0 -3
DEMAND_SECTION
1 0
2 280
3 280
4 14
5 14
6 14
7 8
8 280
9 70
10 10
11 140
12 70
13 14
14 14
15 14
16 8
17 280
18 140
19 14
20 14
21 2
22 280
23 280
24 70
25 10
26 280
27 280
28 14
29 14
30 14
31 14
32 4
33 280
34 70
35 14
36 14
37 14
38 14
39 4
40 140
41 14
42 14
43 14
44 14
45 4
46 140
47 70
48 14
49 14
50 12
51 140
52 10
53 280
54 280
55 14
56 14
57 2
58 280
59 70
60 10
61 280
62 70
63 14
64 14
65 14
66 8
67 280
68 140
69 10
70 280
71 140
72 70
73 14
74 14
75 12
76 280
77 14
78 6
79 140
80 14
81 14
82 12
83 280
84 140
85 280
86 280
87 14
88 14
89 14
90 8
91 280
92 140
93 14
94 6
95 140
96 14
97 14
98 14
99 8
100 280
101 140
102 70
103 280
104 140
105 70
106 10
107 280
108 140
109 14
110 14
111 12
112 280
113 280
114 14
115 6
116 280
117 140
118 70
119 14
120 14
121 14
122 14
123 4
124 140
125 10
126 280
127 280
128 10
129 140
130 70
131 10
132 140
133 14
134 14
135 14
136 8
137 280
138 280
139 14
140 14
141 14
142 8
143 280
144 280
145 14
146 6
147 280
148 280
149 14
150 14
151 12
152 140
153 70
154 14
155 14
156 14
157 8
158 280
159 280
160 14
161 14
162 14
163 8
164 280
165 70
166 14
167 14
168 14
169 8
170 280
171 280
172 10
173 280
174 70
175 14
176 14
177 14
178 14
179 4
180 280
181 70
182 14
183 14
184 14
185 14
186 4
187 280
188 280
189 14
190 14
191 12
192 140
193 70
194 14
195 14
196 2
197 140
198 14
199 14
200 2
201 280
202 140
203 70
204 280
205 140
206 70
207 14
208 6
209 280
210 280
211 70
212 280
213 10
214 280
215 70
216 14
217 14
218 14
219 14
220 4
221 280
222 70
223 14
224 14
225 2
226 280
227 280
228 14
229 14
230 14
231 8
232 280
233 140
234 14
235 14
236 14
237 14
238 4
239 280
240 140
241 70
242 14
243 6
244 280
245 140
246 70
247 10
248 140
249 14
250 14
251 12
252 280
253 280
254 70
255 14
256 6
257 280
258 140
259 70
260 14
261 14
262 14
263 14
264 4
265 280
266 140
267 70
268 14
269 14
270 14
271 8
272 280
273 14
274 14
275 2
276 280
277 140
278 70
279 14
280 14
281 12
282 280
283 70
284 10
285 280
286 14
287 14
288 12
289 280
290 280
291 70
292 280
293 280
294 14
295 14
296 2
297 280
298 14
299 6
300 280
301 14
302 14
303 14
304 8
305 280
306 70
307 14
308 14
309 14
310 8
311 280
312 280
313 14
314 14
315 14
316 8
317 140
318 14
319 14
320 14
321 8
322 280
323 280
324 70
325 14
326 14
327 14
328 14
329 4
330 280
331 280
332 14
333 14
334 14
335 14
336 4
337 280
338 280
339 70
340 14
341 14
342 12
343 280
344 280
345 70
346 10
347 280
348 280
349 14
350 14
351 14
352 8
353 280
354 280
355 70
356 14
357 14
358 14
359 14
360 4
361 140
362 14
363 6
DEPOT_SECTION
1
-1
EOF