SDVRP instances/p02/p02_1050_tsplib0_splitx10_0.sol
362 -5 3 1 4 6 2 99 101 100 291 -7 8 9 353 352 354 356 357 359 358 355 135 131 132 134 133 360 362 361 -10 11 12 14 13 15 110 107 108 109 106 226 227 230 229 228 225 77 76 241 242 -16 312 314 313 315 310 311 115 117 116 -19 18 20 17 130 129 128 23 24 22 21 220 221 -29 27 31 30 25 26 28 75 240 239 238 -35 34 33 160 88 89 86 85 87 84 254 251 255 252 253 -37 36 38 32 157 162 158 159 161 43 40 39 41 44 42 212 211 -48 46 49 47 45 263 256 262 260 257 259 258 261 113 111 112 114 -54 56 53 55 52 302 299 301 300 303 172 176 177 174 178 173 175 121 118 120 122 119 -58 57 180 179 183 181 182 185 184 342 345 344 343 -59 137 136 138 139 141 140 51 50 276 279 275 278 277 280 -66 68 67 283 282 281 306 308 309 307 305 304 249 248 247 250 -74 72 71 69 70 73 274 272 271 273 63 62 64 61 60 65 124 123 -81 78 80 79 82 83 235 231 234 236 237 233 232 188 186 -93 91 90 92 334 335 330 332 333 329 331 284 286 285 287 -94 98 96 97 95 289 288 290 125 127 126 -104 103 102 105 270 268 266 269 265 267 264 292 295 293 294 -148 150 146 149 147 347 348 351 349 346 350 -156 151 152 155 154 153 245 246 243 244 208 210 209 -165 340 341 338 336 339 337 326 327 321 325 323 322 328 324 -170 171 169 163 167 168 166 164 213 214 217 218 215 216 219 223 222 224 -189 190 187 144 145 143 142 206 207 205 203 204 -201 200 202 194 195 193 192 191 198 197 196 199 297 296 298 319 320 318 317 316 0 





OBJ=
1524.527
BEST_KNOWN=
0.000